COLUMNS

passenger_count
pickup_ID
dropoff_ID
request_time_sec
pickup_district
dropoff_district
LDuals
IDuals
vehicle_ID
pick_position
drop_position

REQUESTS_INFO
2      375       356       28761     119       119       171       171       22        1         2         
1      416       376       28762     100       168       103       103       42        1         3         
1      325       629       28764     299       189       99        99        134       1         3         
3      908       1263      28762     290       192       194       194       155       1         2         
2      772       399       28759     290       168       106       106       186       1         3         
2      354       603       28766     119       189       151       151       218       1         2         
1      397       675       28751     168       189       159       159       229       1         3         
1      420       504       28766     168       52        152       152       320       1         3         
1      414       334       28768     100       119       95        95        392       1         2         
1      481       116       28752     189       9         127       127       413       1         3         
1      434       461       28723     52        189       164       164       491       1         2         
1      502       737       28740     52        189       113       113       503       1         2         
2      862       1022      28765     290       291       168       168       509       1         3         
3      368       309       28747     299       127       181       181       517       1         2         
1      924       604       28752     290       189       126       126       533       1         2         
1      331       116       28723     127       9         193       193       664       1         2         
1      922       695       28741     50        189       165       165       698       1         3         
1      770       554       28765     290       189       111       111       762       1         4         
3      368       309       28747     299       127       181       181       819       1         2         
1      771       652       28745     290       189       107       107       822       1         2         
1      549       534       28745     52        199       137       137       854       1         2         
3      862       1022      28765     290       291       168       168       885       1         2         
1      959       699       28766     291       290       122       122       917       1         2         
1      949       1032      28761     290       84        152       152       931       1         3         
1      598       734       28765     189       131       104       104       967       1         4         
1      330       604       28738     127       189       195       195       983       1         2         
3      1025      1194      28546     291       129       352       352       988       1         2         
1      1048      1032      28760     291       84        123       123       1049      1         2         
1      366       232       28737     299       266       146       146       1105      1         3         
1      945       720       28763     50        290       140       140       1114      1         3         
3      375       356       28761     119       119       171       171       1155      1         2         
4      929       398       28742     290       168       185       185       1187      1         2         
1      904       604       28763     290       189       128       128       1198      1         2         
1      1066      916       28762     291       291       93.5      93.5      1233      1         2         
1      863       1218      28729     290       84        197       197       1268      1         2         
3      984       836       28624     291       290       283       283       1285      1         2         
1      756       600       28742     131       280       127       127       1726      1         2         
1      418       220       28761     168       87        173       173       1862      1         3         
2      792       607       28761     290       189       114       114       1904      1         3         
1      236       443       28752     87        168       116       116       1918      1         2         
2      501       532       28762     52        199       121       121       1990      1         3         
3      882       923       28770     290       290       0         0         0         0         0         
3      882       923       28770     290       290       0         0         0         0         0         
1      608       748       28770     189       290       0         0         0         0         0         
1      618       651       28770     131       189       0         0         0         0         0         
1      210       617       28770     266       131       0         0         0         0         0         
1      461       431       28770     189       52        0         0         0         0         0         
1      465       61        28770     199       98        0         0         0         0         0         
1      716       1168      28771     189       291       0         0         0         0         0         
1      947       134       28771     290       9         0         0         0         0         0         
1      840       630       28771     290       189       0         0         0         0         0         
1      408       284       28772     299       299       0         0         0         0         0         
1      909       580       28772     290       189       0         0         0         0         0         
2      772       1048      28772     290       291       0         0         0         0         0         
1      600       665       28772     280       131       0         0         0         0         0         
3      679       504       28772     290       52        0         0         0         0         0         
1      1132      1046      28773     291       291       0         0         0         0         0         
1      535       335       28773     189       119       0         0         0         0         0         
2      788       649       28774     290       189       0         0         0         0         0         
1      760       720       28774     291       290       0         0         0         0         0         
1      534       393       28775     199       52        0         0         0         0         0         
1      598       625       28775     189       189       0         0         0         0         0         
1      437       521       28775     100       52        0         0         0         0         0         
1      134       184       28775     9         87        0         0         0         0         0         
1      817       143       28776     290       54        0         0         0         0         0         
2      740       1299      28776     50        192       0         0         0         0         0         
1      718       484       28776     189       189       0         0         0         0         0         
2      1172      812       28777     129       290       0         0         0         0         0         
3      1065      824       28777     291       291       0         0         0         0         0         
3      1065      824       28777     291       291       0         0         0         0         0         
3      893       440       28777     291       168       0         0         0         0         0         
3      1172      812       28777     129       290       0         0         0         0         0         
1      436       602       28778     100       189       0         0         0         0         0         
1      551       578       28778     189       189       0         0         0         0         0         
3      693       1053      28778     280       84        0         0         0         0         0         
2      505       555       28778     52        199       0         0         0         0         0         
1      712       758       28778     131       131       0         0         0         0         0         
3      488       607       28778     199       189       0         0         0         0         0         
3      488       607       28778     199       189       0         0         0         0         0         
1      746       558       28779     290       189       0         0         0         0         0         
1      376       597       28780     168       131       0         0         0         0         0         
2      417       79        28780     100       98        0         0         0         0         0         
1      581       605       28780     189       189       0         0         0         0         0         
1      829       1047      28781     50        291       0         0         0         0         0         
1      413       601       28782     52        189       0         0         0         0         0         
1      545       721       28782     52        290       0         0         0         0         0         
2      981       720       28782     291       290       0         0         0         0         0         
1      549       556       28782     52        199       0         0         0         0         0         
1      229       253       28782     266       206       0         0         0         0         0         
1      312       673       28782     87        189       0         0         0         0         0         
1      457       578       28782     52        189       0         0         0         0         0         
1      573       645       28783     189       280       0         0         0         0         0         
1      749       695       28784     290       189       0         0         0         0         0         
1      488       233       28784     199       206       0         0         0         0         0         
3      557       376       28784     189       168       0         0         0         0         0         
2      936       739       28784     291       189       0         0         0         0         0         
3      936       739       28784     291       189       0         0         0         0         0         
3      557       376       28784     189       168       0         0         0         0         0         
1      292       457       28785     87        52        0         0         0         0         0         
1      1213      1267      28785     129       129       0         0         0         0         0         
1      465       291       28786     199       87        0         0         0         0         0         
2      693       573       28788     280       189       0         0         0         0         0         
3      747       10        28788     290       98        0         0         0         0         0         
2      747       10        28788     290       98        0         0         0         0         0         
3      924       698       28788     290       189       0         0         0         0         0         
1      837       97        28788     290       9         0         0         0         0         0         
3      693       573       28788     280       189       0         0         0         0         0         
3      924       698       28788     290       189       0         0         0         0         0         
1      310       137       28789     127       286       0         0         0         0         0         
2      839       407       28789     290       299       0         0         0         0         0         
1      757       760       28789     131       291       0         0         0         0         0         
2      1087      394       28790     291       100       0         0         0         0         0         
1      460       331       28790     189       127       0         0         0         0         0         
1      458       604       28790     52        189       0         0         0         0         0         
3      1087      394       28790     291       100       0         0         0         0         0         
1      699       671       28791     290       280       0         0         0         0         0         
1      1010      1217      28791     290       84        0         0         0         0         0         
1      328       545       28791     299       52        0         0         0         0         0         
1      700       727       28791     290       290       0         0         0         0         0         
1      419       48        28791     168       98        0         0         0         0         0         
1      1206      724       28792     192       290       0         0         0         0         0         
1      1153      789       28792     50        290       0         0         0         0         0         
1      716       506       28793     189       189       0         0         0         0         0         
1      294       182       28793     87        178       0         0         0         0         0         
1      354       627       28793     119       189       0         0         0         0         0         
1      839       852       28793     290       291       0         0         0         0         0         
1      770       557       28793     290       189       0         0         0         0         0         
4      849       924       28793     291       290       0         0         0         0         0         
1      665       530       28794     131       189       0         0         0         0         0         
1      723       580       28794     290       189       0         0         0         0         0         
2      1291      916       28794     129       291       0         0         0         0         0         
1      886       626       28794     290       189       0         0         0         0         0         
1      690       513       28794     131       199       0         0         0         0         0         
1      885       699       28794     290       290       0         0         0         0         0         
1      653       555       28794     189       199       0         0         0         0         0         
1      747       630       28795     290       189       0         0         0         0         0         
1      718       882       28795     189       290       0         0         0         0         0         
1      248       672       28795     266       189       0         0         0         0         0         
1      792       20        28796     290       98        0         0         0         0         0         
1      668       579       28796     280       189       0         0         0         0         0         
3      983       788       28797     291       290       0         0         0         0         0         
4      712       665       28797     131       131       0         0         0         0         0         
3      479       137       28797     52        286       0         0         0         0         0         
2      718       627       28798     189       189       0         0         0         0         0         
1      439       551       28798     189       189       0         0         0         0         0         
1      499       388       28798     52        299       0         0         0         0         0         
1      723       628       28798     290       189       0         0         0         0         0         
2      350       616       28799     127       131       0         0         0         0         0         
2      355       47        28799     119       98        0         0         0         0         0         
4      885       814       28799     290       290       0         0         0         0         0         
1      760       621       28799     291       280       0         0         0         0         0         
